NAME          
ROWS
 N  OBJ
 L  c1
 L  c2
COLUMNS
    MARKER    'MARKER'                 'INTORG'
    x[1]      c1        877
    x[1]      c2        638
    x[1]      OBJ       -533
    x[2]      c1        53
    x[2]      c2        918
    x[2]      OBJ       -169
    x[3]      c1        276
    x[3]      c2        995
    x[3]      OBJ       -892
    x[4]      c1        656
    x[4]      c2        500
    x[4]      OBJ       -448
    x[5]      c1        379
    x[5]      c2        245
    x[5]      OBJ       -7
    x[6]      c1        988
    x[6]      c2        300
    x[6]      OBJ       -746
    x[7]      c1        994
    x[7]      c2        845
    x[7]      OBJ       -580
    x[8]      c1        872
    x[8]      c2        683
    x[8]      OBJ       -358
    x[9]      c1        482
    x[9]      c2        565
    x[9]      OBJ       -90
    x[10]     c1        797
    x[10]     c2        925
    x[10]     OBJ       -745
    x[11]     c1        636
    x[11]     c2        242
    x[11]     OBJ       -269
    x[12]     c1        129
    x[12]     c2        495
    x[12]     OBJ       -347
    x[13]     c1        199
    x[13]     c2        618
    x[13]     OBJ       -759
    x[14]     c1        567
    x[14]     c2        451
    x[14]     OBJ       -405
    x[15]     c1        450
    x[15]     c2        323
    x[15]     OBJ       -788
    x[16]     c1        539
    x[16]     c2        672
    x[16]     OBJ       -893
    x[17]     c1        704
    x[17]     c2        500
    x[17]     OBJ       -828
    x[18]     c1        733
    x[18]     c2        877
    x[18]     OBJ       -276
    x[19]     c1        339
    x[19]     c2        474
    x[19]     OBJ       -373
    x[20]     c1        288
    x[20]     c2        538
    x[20]     OBJ       -598
    x[21]     c1        863
    x[21]     c2        37
    x[21]     OBJ       -81
    x[22]     c1        116
    x[22]     c2        294
    x[22]     OBJ       -890
    x[23]     c1        790
    x[23]     c2        747
    x[23]     OBJ       -775
    x[24]     c1        953
    x[24]     c2        908
    x[24]     OBJ       -59
    x[25]     c1        955
    x[25]     c2        632
    x[25]     OBJ       -174
    x[26]     c1        894
    x[26]     c2        812
    x[26]     OBJ       -399
    x[27]     c1        82
    x[27]     c2        662
    x[27]     OBJ       -474
    x[28]     c1        740
    x[28]     c2        366
    x[28]     OBJ       -19
    x[29]     c1        518
    x[29]     c2        767
    x[29]     OBJ       -600
    x[30]     c1        494
    x[30]     c2        826
    x[30]     OBJ       -126
    x[31]     c1        364
    x[31]     c2        359
    x[31]     OBJ       -707
    x[32]     c1        748
    x[32]     c2        983
    x[32]     OBJ       -253
    x[33]     c1        537
    x[33]     c2        132
    x[33]     OBJ       -496
    x[34]     c1        363
    x[34]     c2        466
    x[34]     OBJ       -479
    x[35]     c1        10
    x[35]     c2        551
    x[35]     OBJ       -445
    x[36]     c1        74
    x[36]     c2        543
    x[36]     OBJ       -47
    x[37]     c1        676
    x[37]     c2        452
    x[37]     OBJ       -725
    x[38]     c1        78
    x[38]     c2        267
    x[38]     OBJ       -295
    x[39]     c1        114
    x[39]     c2        58
    x[39]     OBJ       -293
    x[40]     c1        635
    x[40]     c2        976
    x[40]     OBJ       -636
    x[41]     c1        122
    x[41]     c2        115
    x[41]     OBJ       -735
    x[42]     c1        270
    x[42]     c2        601
    x[42]     OBJ       -369
    x[43]     c1        94
    x[43]     c2        599
    x[43]     OBJ       -656
    x[44]     c1        921
    x[44]     c2        272
    x[44]     OBJ       -316
    x[45]     c1        947
    x[45]     c2        619
    x[45]     OBJ       -451
RHS
    rhs       c1        11658
    rhs       c2        12424
RANGES
BOUNDS
 BV bounds    x[1]
 BV bounds    x[2]
 BV bounds    x[3]
 BV bounds    x[4]
 BV bounds    x[5]
 BV bounds    x[6]
 BV bounds    x[7]
 BV bounds    x[8]
 BV bounds    x[9]
 BV bounds    x[10]
 BV bounds    x[11]
 BV bounds    x[12]
 BV bounds    x[13]
 BV bounds    x[14]
 BV bounds    x[15]
 BV bounds    x[16]
 BV bounds    x[17]
 BV bounds    x[18]
 BV bounds    x[19]
 BV bounds    x[20]
 BV bounds    x[21]
 BV bounds    x[22]
 BV bounds    x[23]
 BV bounds    x[24]
 BV bounds    x[25]
 BV bounds    x[26]
 BV bounds    x[27]
 BV bounds    x[28]
 BV bounds    x[29]
 BV bounds    x[30]
 BV bounds    x[31]
 BV bounds    x[32]
 BV bounds    x[33]
 BV bounds    x[34]
 BV bounds    x[35]
 BV bounds    x[36]
 BV bounds    x[37]
 BV bounds    x[38]
 BV bounds    x[39]
 BV bounds    x[40]
 BV bounds    x[41]
 BV bounds    x[42]
 BV bounds    x[43]
 BV bounds    x[44]
 BV bounds    x[45]
ENDATA
